1 1 2 0
1 -1 3 0
1 1 -4 0
1 -1 5 0
1 1 -6 0
1 2 7 0
1 2 -3 0
1 -2 1 0
1 2 -4 0
1 2 -6 0
1 -8 9 0
1 8 -10 0
1 8 11 0
1 -8 3 0
1 -8 12 0
1 -8 -13 0
1 -8 14 0
1 8 -15 0
1 8 4 0
1 -11 9 0
1 11 10 0
1 -11 16 0
1 -11 -3 0
1 -11 12 0
1 11 -13 0
1 -11 14 0
1 -11 -8 0
1 -11 4 0
1 -11 6 0
1 -12 17 0
1 12 -18 0
1 -12 19 0
1 -12 11 0
1 12 2 0
1 -12 -20 0
1 12 -21 0
1 12 22 0
1 -12 1 0
1 6 -23 0
1 6 17 0
1 6 18 0
1 -6 19 0
1 6 11 0
1 -6 2 0
1 6 -12 0
1 -6 -20 0
1 -6 -21 0
1 -6 -8 0
1 -6 1 0
1 3 -17 0
1 -3 24 0
1 3 -25 0
1 3 11 0
1 -3 -2 0
1 -3 -26 0
1 -3 27 0
1 3 28 0
1 -3 -8 0
1 3 1 0
1 3 4 0
1 -4 24 0
1 4 -25 0
1 4 11 0
1 4 -2 0
1 -4 3 0
1 -4 -27 0
1 -4 8 0
1 4 1 0
1 -4 -29 0
1 22 9 0
1 -22 -10 0
1 -22 12 0
1 22 13 0
1 -22 -14 0
1 -22 -28 0
1 22 6 0
1 -19 -9 0
1 19 -10 0
1 19 25 0
1 19 12 0
1 19 -13 0
1 19 -14 0
1 19 6 0
1 21 9 0
1 -21 -10 0
1 -21 -30 0
1 21 31 0
1 21 -12 0
1 -21 32 0
1 21 -6 0
1 18 -10 0
1 18 -24 0
1 -18 12 0
1 -18 -13 0
1 18 14 0
1 18 33 0
1 18 32 0
1 18 -6 0
1 -14 34 0
1 14 10 0
1 14 -18 0
1 14 -19 0
1 -14 -11 0
1 -14 35 0
1 -14 -36 0
1 -14 37 0
1 14 21 0
1 14 8 0
1 -14 -38 0
1 -10 -39 0
1 10 34 0
1 -10 -40 0
1 -10 -18 0
1 10 -19 0
1 10 -11 0
1 -10 -36 0
1 10 -14 0
1 -10 21 0
1 -10 -22 0
1 10 -8 0
1 10 -38 0
1 13 41 0
1 -13 -17 0
1 -13 -18 0
1 13 -19 0
1 13 35 0
1 13 -42 0
1 13 -43 0
1 -13 -22 0
1 13 -8 0
1 13 38 0
1 9 41 0
1 -9 -17 0
1 9 -18 0
1 -9 -19 0
1 -9 13 0
1 -9 42 0
1 -9 -22 0
1 9 8 0
1 -9 -38 0
1 -36 -34 0
1 -36 10 0
1 -36 -30 0
1 36 -31 0
1 36 14 0
1 -36 -20 0
1 36 -33 0
1 36 -32 0
1 34 -10 0
1 34 17 0
1 34 -30 0
1 -34 -31 0
1 34 36 0
1 -34 -14 0
1 -34 -33 0
1 44 39 0
1 -44 -10 0
1 -44 30 0
1 -44 -31 0
1 -44 -42 0
1 44 -14 0
1 -44 -33 0
1 44 -32 0
1 39 -41 0
1 -39 -10 0
1 -39 30 0
1 39 31 0
1 -39 -44 0
1 -39 33 0
1 -39 32 0
1 32 -39 0
1 32 34 0
1 -32 18 0
1 -32 31 0
1 -32 -45 0
1 -32 -21 0
1 32 -46 0
1 32 -47 0
1 -31 39 0
1 31 34 0
1 -31 18 0
1 31 -48 0
1 31 -45 0
1 31 44 0
1 31 -36 0
1 31 32 0
1 33 -39 0
1 33 34 0
1 33 -18 0
1 33 30 0
1 -33 -45 0
1 33 49 0
1 33 44 0
1 33 36 0
1 -33 -21 0
1 33 50 0
1 33 -47 0
1 -33 51 0
1 -30 39 0
1 -30 -34 0
1 -30 52 0
1 30 -45 0
1 30 -35 0
1 30 -44 0
1 -30 36 0
1 30 -21 0
1 -30 33 0
1 -30 -47 0
1 -30 -51 0
1 30 -38 0
1 5 53 0
1 5 54 0
1 -5 7 0
1 -5 55 0
1 -5 56 0
1 5 1 0
1 -5 57 0
1 7 54 0
1 7 2 0
1 7 -56 0
1 15 54 0
1 15 -58 0
1 -15 55 0
1 15 -56 0
1 15 -59 0
1 15 -8 0
1 15 60 0
1 -16 53 0
1 -16 -54 0
1 16 -61 0
1 -16 -58 0
1 16 11 0
1 -16 -62 0
1 16 -55 0
1 16 -56 0
1 -16 59 0
1 -16 63 0
1 -16 -15 0
1 -54 64 0
1 54 24 0
1 -54 65 0
1 -54 -25 0
1 54 -16 0
1 54 7 0
1 54 66 0
1 -54 27 0
1 54 -15 0
1 54 5 0
1 56 54 0
1 56 -64 0
1 -56 -24 0
1 56 25 0
1 -56 16 0
1 56 67 0
1 56 66 0
1 -56 27 0
1 -56 28 0
1 56 15 0
1 -56 5 0
1 53 -68 0
1 53 64 0
1 53 69 0
1 53 -70 0
1 53 16 0
1 53 7 0
1 53 55 0
1 -53 66 0
1 -53 -71 0
1 -53 72 0
1 53 15 0
1 -53 5 0
1 -55 53 0
1 55 -69 0
1 -55 16 0
1 -55 -7 0
1 55 73 0
1 55 -66 0
1 55 71 0
1 55 72 0
1 -55 -15 0
1 -55 -5 0
1 -28 54 0
1 -28 61 0
1 -28 25 0
1 -28 -58 0
1 -28 3 0
1 28 56 0
1 28 -59 0
1 -28 -63 0
1 -28 22 0
1 28 -4 0
1 25 54 0
1 25 -61 0
1 -25 19 0
1 25 -58 0
1 25 70 0
1 -25 59 0
1 -25 28 0
1 25 -4 0
1 27 -54 0
1 27 61 0
1 -27 58 0
1 -27 -74 0
1 27 -75 0
1 27 3 0
1 -27 -56 0
1 27 59 0
1 27 -21 0
1 -27 71 0
1 -27 76 0
1 -27 77 0
1 27 -4 0
1 -24 -63 0
1 -24 -54 0
1 24 -18 0
1 -24 61 0
1 24 58 0
1 -24 74 0
1 24 -75 0
1 24 -3 0
1 24 56 0
1 24 59 0
1 24 76 0
1 24 77 0
1 24 4 0
1 58 -78 0
1 58 -63 0
1 -58 41 0
1 -58 -17 0
1 -58 -25 0
1 -58 79 0
1 -58 16 0
1 58 -42 0
1 58 20 0
1 58 27 0
1 58 -28 0
1 58 -15 0
1 63 -78 0
1 63 41 0
1 63 -17 0
1 63 24 0
1 -63 25 0
1 63 -58 0
1 63 16 0
1 -63 -42 0
1 -63 -20 0
1 63 28 0
1 63 15 0
1 -61 78 0
1 61 -80 0
1 61 -64 0
1 61 25 0
1 -61 81 0
1 -61 -82 0
1 -61 59 0
1 -61 66 0
1 61 28 0
1 -59 78 0
1 -59 -64 0
1 -59 61 0
1 59 25 0
1 59 16 0
1 -59 81 0
1 59 -82 0
1 -59 66 0
1 59 27 0
1 -59 -83 0
1 59 -28 0
1 -59 15 0
1 20 9 0
1 -20 58 0
1 -20 12 0
1 -20 -36 0
1 -20 -66 0
1 20 63 0
1 -20 -76 0
1 20 -77 0
1 -20 -6 0
1 17 9 0
1 17 -34 0
1 -17 58 0
1 17 -3 0
1 -17 12 0
1 -17 -13 0
1 17 -20 0
1 -17 -76 0
1 17 -77 0
1 -42 -23 0
1 42 9 0
1 -42 -41 0
1 -42 -58 0
1 42 74 0
1 -42 -75 0
1 42 -26 0
1 42 84 0
1 42 -13 0
1 42 -44 0
1 -42 -82 0
1 -42 63 0
1 -42 76 0
1 -42 -77 0
1 42 29 0
1 41 -23 0
1 -41 -39 0
1 41 -9 0
1 -41 -80 0
1 -41 -58 0
1 -41 75 0
1 -41 76 0
1 41 77 0
1 -41 -29 0
1 75 41 0
1 -75 24 0
1 75 85 0
1 75 -49 0
1 75 86 0
1 -75 -35 0
1 75 42 0
1 -75 20 0
1 -75 -27 0
1 75 -77 0
1 75 51 0
1 75 -38 0
1 77 41 0
1 77 -17 0
1 77 75 0
1 -77 -49 0
1 -77 35 0
1 77 87 0
1 77 -20 0
1 -77 27 0
1 -77 88 0
1 -77 38 0
1 74 -78 0
1 -74 41 0
1 74 -17 0
1 74 -24 0
1 74 -89 0
1 74 85 0
1 -74 -90 0
1 74 81 0
1 -74 20 0
1 -74 27 0
1 -74 76 0
1 -74 88 0
1 76 -78 0
1 76 41 0
1 -76 -17 0
1 -76 24 0
1 76 -74 0
1 76 -85 0
1 -76 -81 0
1 76 -42 0
1 76 -20 0
1 -76 -27 0
1 -76 -91 0
1 -76 88 0
1 -76 -92 0
1 -35 -9 0
1 -35 10 0
1 35 -30 0
1 -35 75 0
1 -35 -26 0
1 35 81 0
1 35 -84 0
1 35 -14 0
1 -35 33 0
1 -35 -29 0
1 38 78 0
1 38 -9 0
1 -38 -23 0
1 -38 10 0
1 38 30 0
1 -38 75 0
1 -38 35 0
1 38 84 0
1 38 -13 0
1 -38 14 0
1 38 -33 0
1 38 77 0
1 38 -29 0
1 49 93 0
1 49 40 0
1 -49 -30 0
1 49 -75 0
1 -49 90 0
1 -49 -84 0
1 -49 43 0
1 -49 77 0
1 49 -29 0
1 -51 23 0
1 -51 -93 0
1 51 -40 0
1 51 -30 0
1 -51 -49 0
1 -51 -26 0
1 51 37 0
1 51 33 0
1 -51 29 0
1 51 92 0
1 84 23 0
1 84 -41 0
1 -84 94 0
1 -84 95 0
1 84 45 0
1 -84 -49 0
1 -84 12 0
1 -84 -96 0
1 -84 42 0
1 84 97 0
1 -84 -47 0
1 84 -51 0
1 23 -98 0
1 23 45 0
1 23 -49 0
1 -23 35 0
1 -23 -84 0
1 23 42 0
1 23 6 0
1 23 97 0
1 -23 -99 0
1 -23 -47 0
1 23 -51 0
1 23 -38 0
1 -26 -41 0
1 26 -100 0
1 -26 -85 0
1 -26 -49 0
1 26 3 0
1 -26 35 0
1 -26 101 0
1 26 42 0
1 26 97 0
1 26 -102 0
1 -26 88 0
1 26 -51 0
1 26 29 0
1 -26 -38 0
1 29 41 0
1 29 -94 0
1 29 100 0
1 -29 -85 0
1 -29 -49 0
1 -29 -35 0
1 -29 42 0
1 29 -4 0
1 -29 -97 0
1 29 -102 0
1 -29 -88 0
1 -29 -51 0
1 -45 -23 0
1 45 -93 0
1 -45 -40 0
1 -45 31 0
1 45 -85 0
1 -45 84 0
1 -45 -37 0
1 45 -33 0
1 45 -32 0
1 45 -47 0
1 -47 23 0
1 47 40 0
1 47 -30 0
1 -47 -33 0
1 47 -32 0
1 -47 88 0
1 95 -93 0
1 -95 40 0
1 95 99 0
1 -95 -48 0
1 95 -100 0
1 95 -84 0
1 -95 50 0
1 95 46 0
1 -99 23 0
1 99 -93 0
1 99 40 0
1 99 52 0
1 -99 -48 0
1 -99 84 0
1 -99 -50 0
1 99 -46 0
1 99 -102 0
1 37 103 0
1 37 40 0
1 -37 104 0
1 -37 -105 0
1 -37 95 0
1 37 45 0
1 -37 -106 0
1 -37 14 0
1 -37 107 0
1 37 108 0
1 -37 -99 0
1 37 47 0
1 40 -10 0
1 40 103 0
1 40 -109 0
1 40 104 0
1 -40 105 0
1 40 -95 0
1 -40 45 0
1 40 -49 0
1 40 37 0
1 -40 110 0
1 -40 -99 0
1 -40 47 0
1 40 51 0
1 43 93 0
1 -43 -103 0
1 43 -95 0
1 -43 -49 0
1 43 106 0
1 -43 111 0
1 43 -112 0
1 43 -97 0
1 -43 -99 0
1 43 -47 0
1 -43 51 0
1 93 9 0
1 -93 -113 0
1 93 103 0
1 -93 -95 0
1 93 106 0
1 93 43 0
1 93 -112 0
1 -93 -99 0
1 -93 -47 0
1 93 -51 0
1 105 -48 0
1 105 94 0
1 105 37 0
1 105 110 0
1 -105 -46 0
1 110 -40 0
1 -110 52 0
1 -110 -105 0
1 -110 -37 0
1 110 -50 0
1 110 -97 0
1 -104 40 0
1 -104 -114 0
1 -104 48 0
1 104 107 0
1 -104 37 0
1 -104 -50 0
1 -104 -46 0
1 107 -104 0
1 -107 52 0
1 -107 37 0
1 107 112 0
1 -107 46 0
1 -46 115 0
1 -46 -104 0
1 46 105 0
1 -46 -48 0
1 -46 95 0
1 -46 116 0
1 46 -107 0
1 46 -110 0
1 -46 32 0
1 46 99 0
1 48 -115 0
1 -48 104 0
1 -48 31 0
1 48 -105 0
1 -48 -117 0
1 -48 95 0
1 -48 -116 0
1 -48 -107 0
1 48 -46 0
1 50 -118 0
1 50 103 0
1 50 52 0
1 -50 105 0
1 -50 95 0
1 -50 -116 0
1 50 119 0
1 50 -106 0
1 -50 -107 0
1 50 33 0
1 -50 -110 0
1 50 99 0
1 -52 -115 0
1 -52 118 0
1 52 103 0
1 -52 30 0
1 52 -104 0
1 -52 -120 0
1 52 -95 0
1 -52 -119 0
1 52 -50 0
1 52 -106 0
1 -52 107 0
1 -52 110 0
1 52 99 0
1 57 121 0
1 -57 -122 0
1 -57 123 0
1 -57 124 0
1 -57 125 0
1 57 5 0
1 123 -121 0
1 123 -122 0
1 123 125 0
1 60 -121 0
1 60 -124 0
1 60 -125 0
1 60 126 0
1 60 15 0
1 60 127 0
1 -62 121 0
1 62 122 0
1 -62 -128 0
1 62 -129 0
1 -62 -127 0
1 62 -125 0
1 62 -126 0
1 -62 60 0
1 125 -69 0
1 125 -122 0
1 125 -70 0
1 125 123 0
1 125 -71 0
1 -125 130 0
1 -125 -72 0
1 -125 60 0
1 -125 -57 0
1 122 125 0
1 -122 69 0
1 -122 70 0
1 122 62 0
1 -122 71 0
1 -122 -72 0
1 -122 60 0
1 -122 -57 0
1 -124 -131 0
1 -124 121 0
1 124 62 0
1 124 123 0
1 -124 57 0
1 -121 132 0
1 -121 62 0
1 121 -123 0
1 121 -124 0
1 -121 60 0
1 121 57 0
1 72 53 0
1 72 -122 0
1 -72 -70 0
1 -72 128 0
1 -72 -129 0
1 72 -55 0
1 72 -125 0
1 72 28 0
1 -72 126 0
1 -72 -127 0
1 70 -53 0
1 70 -25 0
1 70 128 0
1 70 129 0
1 70 126 0
1 -70 -55 0
1 -70 -125 0
1 -70 -72 0
1 70 -127 0
1 -71 -133 0
1 71 -53 0
1 71 69 0
1 71 122 0
1 71 -128 0
1 -71 -129 0
1 -71 134 0
1 -71 -135 0
1 -71 27 0
1 -71 -125 0
1 71 126 0
1 71 -127 0
1 -71 -136 0
1 -69 -133 0
1 -69 -53 0
1 -69 -24 0
1 69 122 0
1 69 -128 0
1 69 129 0
1 69 134 0
1 69 55 0
1 -69 71 0
1 -69 -126 0
1 69 -127 0
1 -69 -136 0
1 -127 137 0
1 127 80 0
1 -127 -64 0
1 -127 -69 0
1 127 -70 0
1 127 62 0
1 127 138 0
1 -127 82 0
1 -127 71 0
1 127 72 0
1 127 -60 0
1 -127 -139 0
1 -129 -137 0
1 -129 -64 0
1 -129 -69 0
1 -129 70 0
1 129 -62 0
1 129 140 0
1 129 138 0
1 129 -66 0
1 129 127 0
1 129 -71 0
1 129 72 0
1 129 -60 0
1 -126 -137 0
1 126 -69 0
1 126 128 0
1 -126 -62 0
1 -126 -71 0
1 -126 -72 0
1 126 -60 0
1 -128 -137 0
1 128 -69 0
1 128 -70 0
1 128 141 0
1 128 62 0
1 128 -138 0
1 -128 71 0
1 128 -72 0
1 128 60 0
1 -66 53 0
1 -66 54 0
1 66 64 0
1 66 -129 0
1 -66 -134 0
1 66 -135 0
1 66 55 0
1 66 56 0
1 66 59 0
1 66 20 0
1 -66 -127 0
1 66 -136 0
1 -64 -133 0
1 64 -53 0
1 64 -17 0
1 64 -54 0
1 64 -61 0
1 -64 -129 0
1 -64 134 0
1 64 135 0
1 64 -55 0
1 -64 -56 0
1 64 -59 0
1 -64 66 0
1 -64 127 0
1 64 -136 0
1 -82 133 0
1 82 -80 0
1 82 -68 0
1 -82 65 0
1 -82 61 0
1 -82 -129 0
1 -82 -134 0
1 -82 135 0
1 82 73 0
1 82 -42 0
1 82 -67 0
1 -82 -59 0
1 82 127 0
1 -82 -136 0
1 -80 133 0
1 -80 -41 0
1 -80 -65 0
1 -80 -61 0
1 80 129 0
1 80 -134 0
1 80 -59 0
1 -80 67 0
1 -80 -127 0
1 -80 -136 0
1 133 -78 0
1 -133 142 0
1 -133 80 0
1 -133 64 0
1 -133 -69 0
1 133 -143 0
1 -133 90 0
1 133 -81 0
1 -133 82 0
1 -133 66 0
1 133 -71 0
1 133 -144 0
1 133 -92 0
1 -135 -78 0
1 135 133 0
1 -135 -80 0
1 135 -64 0
1 135 69 0
1 -135 143 0
1 135 90 0
1 135 81 0
1 -135 82 0
1 -135 66 0
1 -135 71 0
1 135 144 0
1 -135 -92 0
1 -136 -80 0
1 136 64 0
1 136 -145 0
1 -136 -69 0
1 136 134 0
1 136 -146 0
1 -136 -82 0
1 -136 -71 0
1 136 144 0
1 -136 -147 0
1 -134 -64 0
1 -134 -69 0
1 134 -143 0
1 134 148 0
1 -134 -146 0
1 134 138 0
1 -134 -82 0
1 -134 -66 0
1 134 -71 0
1 -134 147 0
1 81 -78 0
1 81 -133 0
1 -81 -68 0
1 81 65 0
1 -81 61 0
1 81 -58 0
1 81 135 0
1 81 35 0
1 81 138 0
1 -81 -73 0
1 81 -67 0
1 -81 59 0
1 -81 -63 0
1 -81 76 0
1 78 -133 0
1 78 -137 0
1 78 -65 0
1 78 -61 0
1 78 -58 0
1 -78 -74 0
1 78 135 0
1 -78 -81 0
1 78 73 0
1 -78 67 0
1 78 59 0
1 -78 63 0
1 -78 38 0
1 90 -133 0
1 90 -68 0
1 90 -65 0
1 90 149 0
1 -90 79 0
1 -90 74 0
1 90 -49 0
1 90 73 0
1 90 -83 0
1 90 -150 0
1 -90 76 0
1 90 -92 0
1 92 68 0
1 -92 -65 0
1 92 -149 0
1 -92 74 0
1 92 -90 0
1 92 135 0
1 92 -73 0
1 -92 -67 0
1 92 150 0
1 -92 76 0
1 92 51 0
1 -92 147 0
1 -65 -78 0
1 -65 151 0
1 -65 -85 0
1 65 90 0
1 -65 81 0
1 -65 -82 0
1 -65 -67 0
1 -65 152 0
1 -65 -102 0
1 65 88 0
1 -65 92 0
1 67 -78 0
1 67 80 0
1 67 -65 0
1 -67 100 0
1 67 -85 0
1 -67 90 0
1 -67 -81 0
1 -67 -56 0
1 -67 -82 0
1 67 153 0
1 -67 102 0
1 -67 -92 0
1 -68 78 0
1 -68 -53 0
1 -68 -80 0
1 -68 154 0
1 -68 143 0
1 -68 -81 0
1 68 82 0
1 68 -155 0
1 -68 -144 0
1 68 92 0
1 -73 -78 0
1 73 -80 0
1 73 156 0
1 -73 157 0
1 -73 -143 0
1 73 -81 0
1 -73 55 0
1 73 158 0
1 -73 -82 0
1 73 -152 0
1 -73 155 0
1 73 144 0
1 -73 92 0
1 -85 -65 0
1 85 149 0
1 -85 -74 0
1 85 -45 0
1 85 75 0
1 -85 143 0
1 85 -26 0
1 85 83 0
1 85 150 0
1 85 76 0
1 85 -88 0
1 -85 -29 0
1 88 149 0
1 -88 -79 0
1 88 77 0
1 88 -75 0
1 88 85 0
1 88 -26 0
1 88 -67 0
1 -88 83 0
1 88 150 0
1 88 47 0
1 -88 -144 0
1 -88 29 0
1 -100 -65 0
1 -100 -91 0
1 100 149 0
1 100 -79 0
1 -100 95 0
1 100 -89 0
1 -100 157 0
1 -100 26 0
1 -100 67 0
1 -100 -83 0
1 -100 -150 0
1 100 102 0
1 100 87 0
1 -102 65 0
1 102 -149 0
1 102 79 0
1 102 -100 0
1 -102 89 0
1 -102 -86 0
1 102 -26 0
1 102 67 0
1 -102 -150 0
1 -102 99 0
1 102 91 0
1 -102 -155 0
1 102 -87 0
1 -102 -29 0
1 -79 -150 0
1 -79 159 0
1 79 114 0
1 -79 -58 0
1 79 160 0
1 79 -100 0
1 79 85 0
1 79 90 0
1 -79 -161 0
1 -79 97 0
1 79 88 0
1 79 92 0
1 -150 159 0
1 -150 -114 0
1 150 -94 0
1 150 -79 0
1 150 -100 0
1 -150 -85 0
1 -150 112 0
1 150 -63 0
1 150 97 0
1 150 162 0
1 -150 102 0
1 -150 -88 0
1 150 92 0
1 149 -159 0
1 149 -61 0
1 149 163 0
1 -149 -156 0
1 149 100 0
1 -149 -85 0
1 149 -90 0
1 149 -83 0
1 -149 164 0
1 -149 -152 0
1 149 -102 0
1 149 -88 0
1 149 -92 0
1 83 -159 0
1 83 149 0
1 83 165 0
1 83 -156 0
1 -83 100 0
1 83 85 0
1 83 -90 0
1 83 -161 0
1 -83 59 0
1 -83 -164 0
1 -83 102 0
1 -94 -23 0
1 -94 93 0
1 94 -150 0
1 -94 105 0
1 94 -79 0
1 94 -89 0
1 94 86 0
1 94 -26 0
1 -94 84 0
1 -94 43 0
1 -94 -97 0
1 -94 -91 0
1 94 -87 0
1 94 29 0
1 -97 -93 0
1 97 -79 0
1 -97 84 0
1 97 43 0
1 97 -150 0
1 -97 152 0
1 97 -91 0
1 97 87 0
1 -97 -29 0
1 114 -98 0
1 -114 -165 0
1 114 -79 0
1 -114 -86 0
1 114 -96 0
1 -114 43 0
1 -114 150 0
1 114 -91 0
1 114 -87 0
1 -114 166 0
1 -112 98 0
1 -112 -93 0
1 112 -114 0
1 -112 -79 0
1 -112 -89 0
1 112 86 0
1 -112 -96 0
1 -112 -107 0
1 -112 164 0
1 -112 91 0
1 112 166 0
1 -86 -167 0
1 86 118 0
1 -86 -103 0
1 86 -114 0
1 -86 94 0
1 -86 -168 0
1 86 169 0
1 -86 119 0
1 -86 -106 0
1 86 -97 0
1 86 -102 0
1 86 87 0
1 -87 -167 0
1 -87 118 0
1 87 100 0
1 87 86 0
1 -87 119 0
1 -87 -106 0
1 87 -112 0
1 -87 97 0
1 89 -159 0
1 89 91 0
1 89 94 0
1 89 -74 0
1 89 170 0
1 -89 169 0
1 89 171 0
1 89 -161 0
1 -89 97 0
1 91 167 0
1 -91 -172 0
1 91 -114 0
1 -91 -94 0
1 -91 -100 0
1 91 -89 0
1 91 169 0
1 -91 171 0
1 91 161 0
1 -91 -112 0
1 91 -97 0
1 -91 76 0
1 -91 -102 0
1 91 -173 0
1 103 98 0
1 -103 40 0
1 103 -159 0
1 -103 -52 0
1 103 -86 0
1 -103 101 0
1 -103 -96 0
1 -103 -106 0
1 103 43 0
1 103 -37 0
1 -103 87 0
1 106 -98 0
1 -106 93 0
1 106 -103 0
1 -106 40 0
1 106 52 0
1 -106 86 0
1 -106 101 0
1 106 -96 0
1 106 -43 0
1 -106 -161 0
1 106 -37 0
1 -106 50 0
1 106 -87 0
1 -106 -166 0
1 118 -98 0
1 -118 -172 0
1 118 113 0
1 -118 -109 0
1 118 52 0
1 118 -86 0
1 -118 101 0
1 118 119 0
1 118 96 0
1 -118 -111 0
1 118 108 0
1 -118 87 0
1 -118 166 0
1 119 -118 0
1 -119 113 0
1 119 -109 0
1 119 52 0
1 -119 86 0
1 -119 101 0
1 -119 171 0
1 119 96 0
1 119 111 0
1 -119 -50 0
1 -119 87 0
1 96 -115 0
1 96 98 0
1 -96 -118 0
1 -96 -114 0
1 96 174 0
1 96 -175 0
1 96 -116 0
1 -96 -84 0
1 -96 106 0
1 96 -112 0
1 96 176 0
1 -98 23 0
1 -98 -118 0
1 98 103 0
1 98 -114 0
1 98 174 0
1 98 -116 0
1 98 106 0
1 98 -177 0
1 -101 -167 0
1 -101 103 0
1 -101 -174 0
1 101 -178 0
1 -101 -169 0
1 -101 -119 0
1 101 -106 0
1 101 112 0
1 -101 -166 0
1 101 179 0
1 -166 -167 0
1 -166 118 0
1 -166 103 0
1 -166 -114 0
1 166 174 0
1 -166 178 0
1 -166 169 0
1 -166 101 0
1 166 -112 0
1 -166 -177 0
1 -166 29 0
1 -166 -179 0
1 115 98 0
1 -115 113 0
1 -115 48 0
1 -115 -116 0
1 -115 -96 0
1 -115 111 0
1 115 108 0
1 -115 50 0
1 115 -46 0
1 -116 -115 0
1 -116 98 0
1 -116 113 0
1 -116 -109 0
1 -116 -52 0
1 116 48 0
1 116 -169 0
1 116 -96 0
1 116 -111 0
1 116 -50 0
1 176 -98 0
1 176 109 0
1 -176 120 0
1 176 117 0
1 176 175 0
1 176 96 0
1 -176 108 0
1 -176 180 0
1 -176 -181 0
1 176 179 0
1 -175 -98 0
1 175 -109 0
1 -175 -120 0
1 -175 117 0
1 175 96 0
1 -175 111 0
1 175 108 0
1 175 180 0
1 175 -176 0
1 108 115 0
1 -108 118 0
1 -108 109 0
1 -108 182 0
1 -108 183 0
1 108 -175 0
1 -108 -116 0
1 -108 119 0
1 108 184 0
1 -108 -185 0
1 -108 -176 0
1 109 -115 0
1 109 118 0
1 109 40 0
1 109 -182 0
1 -109 -175 0
1 109 116 0
1 109 -119 0
1 -109 -184 0
1 109 -185 0
1 -109 176 0
1 111 115 0
1 -111 113 0
1 -111 -186 0
1 111 119 0
1 111 -43 0
1 111 -187 0
1 -111 176 0
1 -113 115 0
1 -113 118 0
1 -113 93 0
1 -113 -186 0
1 113 -174 0
1 113 -175 0
1 113 116 0
1 -113 -119 0
1 -113 111 0
1 113 187 0
1 113 -177 0
1 -113 -176 0
1 -185 -109 0
1 -185 -117 0
1 -185 -183 0
1 185 -108 0
1 185 -180 0
1 -185 -177 0
1 -183 -109 0
1 -183 -120 0
1 -183 -117 0
1 -183 -174 0
1 -183 108 0
1 -183 180 0
1 183 -181 0
1 183 -185 0
1 184 109 0
1 -184 -120 0
1 184 -182 0
1 184 -117 0
1 184 108 0
1 184 180 0
1 184 -187 0
1 182 -181 0
1 182 -109 0
1 -182 120 0
1 182 -117 0
1 -182 -108 0
1 182 180 0
1 -182 184 0
1 181 -182 0
1 181 117 0
1 181 -183 0
1 181 -46 0
1 -181 184 0
1 -181 185 0
1 -181 176 0
1 117 181 0
1 117 -48 0
1 117 182 0
1 -117 -175 0
1 -117 184 0
1 -117 -185 0
1 117 -176 0
1 -180 -120 0
1 -180 182 0
1 -180 -183 0
1 180 -50 0
1 -180 184 0
1 -180 -185 0
1 180 -176 0
1 -120 -52 0
1 -120 -183 0
1 -120 175 0
1 -120 180 0
1 120 -184 0
1 120 185 0
1 -120 176 0
1 -138 -137 0
1 138 -132 0
1 138 188 0
1 138 -128 0
1 -138 134 0
1 -138 81 0
1 138 131 0
1 -138 130 0
1 138 127 0
1 -138 136 0
1 -137 132 0
1 137 -188 0
1 137 128 0
1 -137 129 0
1 -137 134 0
1 -137 138 0
1 -137 -131 0
1 137 126 0
1 -137 -127 0
1 137 136 0
1 -146 -132 0
1 -146 -188 0
1 146 141 0
1 146 140 0
1 -146 -134 0
1 -146 -131 0
1 -146 130 0
1 146 -189 0
1 -146 139 0
1 -146 -136 0
1 -146 -147 0
1 -147 -132 0
1 147 -188 0
1 -147 141 0
1 147 -140 0
1 -147 -134 0
1 -147 -146 0
1 -147 -131 0
1 147 130 0
1 147 -189 0
1 147 -139 0
1 147 -136 0
1 -130 137 0
1 130 188 0
1 -130 -157 0
1 -130 -143 0
1 -130 -190 0
1 130 -146 0
1 130 -138 0
1 130 -125 0
1 -130 -155 0
1 -130 144 0
1 188 122 0
1 188 -191 0
1 -188 157 0
1 -188 -146 0
1 188 -138 0
1 -188 -130 0
1 -188 155 0
1 -188 -144 0
1 -188 147 0
1 131 -137 0
1 -131 -132 0
1 -131 -146 0
1 -131 -138 0
1 131 -124 0
1 131 192 0
1 -132 -137 0
1 -132 -121 0
1 132 193 0
1 -132 146 0
1 -132 131 0
1 -132 147 0
1 143 188 0
1 -143 -141 0
1 143 -140 0
1 -143 -85 0
1 -143 -135 0
1 143 73 0
1 -143 130 0
1 143 -189 0
1 -143 -139 0
1 143 144 0
1 143 -136 0
1 144 133 0
1 144 136 0
1 -144 -68 0
1 -144 188 0
1 144 -141 0
1 144 -140 0
1 144 -134 0
1 144 -143 0
1 -144 135 0
1 -144 73 0
1 -144 -130 0
1 144 -189 0
1 144 -88 0
1 144 -139 0
1 -157 142 0
1 157 68 0
1 157 188 0
1 -157 -141 0
1 -157 100 0
1 157 -194 0
1 157 -73 0
1 -157 -130 0
1 -157 139 0
1 -155 -142 0
1 155 68 0
1 155 188 0
1 -155 141 0
1 -155 157 0
1 -155 -140 0
1 -155 194 0
1 155 -73 0
1 -155 130 0
1 -155 102 0
1 -155 -139 0
1 155 145 0
1 139 -195 0
1 -139 156 0
1 139 -157 0
1 139 140 0
1 139 -143 0
1 -139 -146 0
1 139 -196 0
1 -139 -164 0
1 139 155 0
1 139 -127 0
1 139 -144 0
1 139 197 0
1 -139 -147 0
1 140 -195 0
1 -140 -165 0
1 -140 156 0
1 -140 129 0
1 140 -157 0
1 -140 143 0
1 -140 -146 0
1 140 -196 0
1 140 -152 0
1 -140 -155 0
1 140 -139 0
1 140 -144 0
1 189 -195 0
1 -189 141 0
1 189 -157 0
1 -189 -143 0
1 -189 -146 0
1 189 -196 0
1 -189 -144 0
1 -189 -147 0
1 141 195 0
1 -141 -128 0
1 141 -157 0
1 -141 198 0
1 -141 -143 0
1 -141 -146 0
1 141 -189 0
1 -141 155 0
1 -141 144 0
1 -156 -142 0
1 -156 -68 0
1 -156 -149 0
1 -156 94 0
1 156 -148 0
1 156 194 0
1 -156 -73 0
1 156 -67 0
1 156 83 0
1 -156 -152 0
1 156 139 0
1 152 142 0
1 152 -68 0
1 152 65 0
1 152 149 0
1 -152 140 0
1 152 148 0
1 -152 194 0
1 -152 -73 0
1 -152 -67 0
1 -152 83 0
1 -152 -97 0
1 152 -139 0
1 -165 -142 0
1 165 151 0
1 -165 -140 0
1 165 -148 0
1 -165 194 0
1 165 -153 0
1 165 83 0
1 165 139 0
1 165 -145 0
1 164 142 0
1 -164 -154 0
1 164 151 0
1 -164 149 0
1 164 165 0
1 -164 148 0
1 -164 -194 0
1 -164 -158 0
1 -164 83 0
1 164 112 0
1 164 -145 0
1 142 -133 0
1 142 -172 0
1 -142 199 0
1 142 159 0
1 142 -165 0
1 142 -156 0
1 -142 194 0
1 142 -200 0
1 142 171 0
1 142 161 0
1 -142 164 0
1 -142 -152 0
1 194 -172 0
1 -194 165 0
1 194 156 0
1 -194 -157 0
1 194 -200 0
1 -194 171 0
1 -194 -201 0
1 -194 161 0
1 -194 -164 0
1 194 -155 0
1 145 202 0
1 145 -203 0
1 -145 -204 0
1 -145 195 0
1 145 -165 0
1 -145 156 0
1 -145 -157 0
1 145 148 0
1 -145 -200 0
1 -145 -205 0
1 -145 -196 0
1 -145 164 0
1 145 -152 0
1 -145 155 0
1 -145 136 0
1 -148 203 0
1 148 204 0
1 148 195 0
1 148 -165 0
1 148 -156 0
1 148 -134 0
1 148 -206 0
1 148 -200 0
1 148 -205 0
1 -148 -196 0
1 148 164 0
1 148 145 0
1 159 142 0
1 -159 -103 0
1 -159 149 0
1 -159 151 0
1 -159 79 0
1 -159 89 0
1 159 -158 0
1 -159 153 0
1 159 150 0
1 -159 91 0
1 161 142 0
1 161 154 0
1 -161 159 0
1 161 151 0
1 -161 149 0
1 -161 -79 0
1 -161 -194 0
1 161 -106 0
1 -161 -83 0
1 -161 -153 0
1 -161 -150 0
1 -161 -91 0
1 172 -118 0
1 172 204 0
1 -172 -154 0
1 172 -151 0
1 -172 -163 0
1 -172 -89 0
1 172 194 0
1 172 -158 0
1 172 153 0
1 -172 207 0
1 172 162 0
1 172 -91 0
1 171 -142 0
1 -171 -172 0
1 171 154 0
1 -171 -163 0
1 171 -160 0
1 171 -89 0
1 171 194 0
1 171 119 0
1 171 -205 0
1 171 158 0
1 -171 -207 0
1 171 -162 0
1 171 91 0
1 -151 -167 0
1 151 65 0
1 -151 165 0
1 -151 -208 0
1 -151 178 0
1 -151 -169 0
1 -151 -161 0
1 151 -153 0
1 -153 -167 0
1 -153 172 0
1 153 -159 0
1 -153 151 0
1 -153 165 0
1 153 -208 0
1 153 178 0
1 153 -169 0
1 -153 161 0
1 153 67 0
1 -153 -164 0
1 153 -179 0
1 154 -209 0
1 -154 203 0
1 -154 -172 0
1 -154 68 0
1 -154 159 0
1 -154 -208 0
1 154 -200 0
1 154 -171 0
1 154 -158 0
1 154 161 0
1 154 -164 0
1 -158 -209 0
1 158 -203 0
1 158 172 0
1 -158 -154 0
1 158 159 0
1 158 -165 0
1 158 -208 0
1 158 -210 0
1 -158 200 0
1 -158 -171 0
1 158 -73 0
1 -158 -161 0
1 -158 164 0
1 -167 -115 0
1 167 -151 0
1 167 163 0
1 167 160 0
1 -167 -89 0
1 167 169 0
1 -167 -101 0
1 -167 153 0
1 -167 -207 0
1 -167 162 0
1 167 -91 0
1 -167 87 0
1 -167 166 0
1 -169 167 0
1 -169 151 0
1 169 160 0
1 -169 89 0
1 169 86 0
1 -169 116 0
1 169 -200 0
1 -169 153 0
1 169 207 0
1 -169 162 0
1 169 91 0
1 169 -87 0
1 -169 -166 0
1 179 -209 0
1 -179 -151 0
1 179 163 0
1 -179 -160 0
1 -179 -178 0
1 179 168 0
1 -179 101 0
1 179 153 0
1 -179 207 0
1 -179 162 0
1 -179 211 0
1 -179 -176 0
1 -178 151 0
1 -178 163 0
1 -178 -160 0
1 -178 -175 0
1 -178 -168 0
1 -178 210 0
1 -178 -101 0
1 178 -207 0
1 178 -162 0
1 -178 211 0
1 178 166 0
1 160 -167 0
1 -160 172 0
1 160 -162 0
1 -160 79 0
1 160 -186 0
1 -160 -174 0
1 -160 -169 0
1 -160 187 0
1 160 177 0
1 160 -179 0
1 -162 -167 0
1 -162 172 0
1 -162 -160 0
1 -162 174 0
1 162 -178 0
1 162 -169 0
1 162 -187 0
1 -162 -177 0
1 162 179 0
1 163 -167 0
1 -163 149 0
1 163 -212 0
1 -163 208 0
1 -163 178 0
1 163 169 0
1 163 207 0
1 163 -213 0
1 -207 167 0
1 207 -163 0
1 207 -208 0
1 -207 178 0
1 207 169 0
1 -207 -171 0
1 207 83 0
1 -207 213 0
1 207 179 0
1 177 -98 0
1 -177 113 0
1 177 160 0
1 -177 174 0
1 -177 -170 0
1 177 -168 0
1 -177 101 0
1 -177 -96 0
1 -177 -162 0
1 177 173 0
1 -177 -185 0
1 -177 -166 0
1 174 -160 0
1 -174 -170 0
1 -174 -208 0
1 174 168 0
1 -174 -101 0
1 174 -96 0
1 -174 111 0
1 174 211 0
1 -174 173 0
1 174 -177 0
1 -174 -166 0
1 187 -113 0
1 -187 -186 0
1 187 -160 0
1 -187 170 0
1 187 168 0
1 -187 111 0
1 187 162 0
1 187 -184 0
1 -187 173 0
1 -187 -213 0
1 -186 113 0
1 -186 182 0
1 -186 -170 0
1 186 -173 0
1 -186 168 0
1 -186 111 0
1 -186 162 0
1 186 -187 0
1 168 -186 0
1 168 86 0
1 -168 -178 0
1 168 211 0
1 168 -187 0
1 168 177 0
1 -168 179 0
1 211 186 0
1 211 -174 0
1 211 -178 0
1 211 168 0
1 -211 -187 0
1 -211 -87 0
1 -211 -177 0
1 -211 179 0
1 170 186 0
1 -170 -89 0
1 -170 174 0
1 170 -178 0
1 -170 -173 0
1 -170 187 0
1 -170 177 0
1 -170 179 0
1 173 -186 0
1 173 -174 0
1 173 -170 0
1 -173 187 0
1 173 177 0
1 173 179 0
1 195 159 0
1 195 -193 0
1 195 -191 0
1 -195 141 0
1 195 140 0
1 -195 -148 0
1 195 -196 0
1 195 -192 0
1 -195 190 0
1 195 -189 0
1 195 -139 0
1 -196 193 0
1 196 141 0
1 -196 -140 0
1 196 -148 0
1 196 -161 0
1 196 -192 0
1 196 189 0
1 196 139 0
1 -196 145 0
1 -204 -172 0
1 204 193 0
1 204 -191 0
1 -204 -198 0
1 204 214 0
1 204 148 0
1 -204 205 0
1 204 192 0
1 -204 190 0
1 204 -197 0
1 204 -145 0
1 205 -204 0
1 205 193 0
1 205 191 0
1 205 214 0
1 -205 -148 0
1 205 171 0
1 205 197 0
1 190 -209 0
1 -190 203 0
1 -190 -204 0
1 -190 195 0
1 -190 191 0
1 -190 -210 0
1 -190 -200 0
1 -190 -205 0
1 -190 -196 0
1 -191 209 0
1 191 -203 0
1 191 -204 0
1 191 -195 0
1 191 -188 0
1 191 210 0
1 191 -200 0
1 -191 -205 0
1 -191 196 0
1 -191 -190 0
1 192 -204 0
1 192 205 0
1 192 -196 0
1 -192 -131 0
1 193 -204 0
1 193 -195 0
1 -193 -192 0
1 193 132 0
1 193 205 0
1 193 -196 0
1 -203 142 0
1 203 -154 0
1 -203 191 0
1 203 -198 0
1 203 214 0
1 203 148 0
1 -203 194 0
1 203 -200 0
1 -203 158 0
1 203 -190 0
1 -203 215 0
1 203 145 0
1 -200 -142 0
1 -200 154 0
1 200 198 0
1 -200 -214 0
1 200 148 0
1 200 -194 0
1 -200 -158 0
1 200 -190 0
1 200 -215 0
1 -200 -197 0
1 -200 -145 0
1 -209 202 0
1 209 -199 0
1 -209 -191 0
1 209 198 0
1 -209 -214 0
1 -209 -210 0
1 -209 206 0
1 -209 -190 0
1 209 -215 0
1 209 197 0
1 209 -179 0
1 -210 -209 0
1 -210 199 0
1 210 -154 0
1 -210 -191 0
1 -210 -214 0
1 -210 178 0
1 -210 -206 0
1 -210 -201 0
1 -210 158 0
1 -210 -190 0
1 210 -215 0
1 -210 -197 0
1 -197 209 0
1 197 203 0
1 -197 212 0
1 197 -214 0
1 197 -200 0
1 197 -205 0
1 -197 -213 0
1 -197 -139 0
1 214 209 0
1 214 203 0
1 -214 -204 0
1 -214 -212 0
1 214 -140 0
1 -214 208 0
1 -214 -210 0
1 -214 200 0
1 214 205 0
1 -214 213 0
1 214 -197 0
1 215 209 0
1 -215 -204 0
1 215 200 0
1 -215 205 0
1 -215 -189 0
1 198 -209 0
1 -198 203 0
1 -198 -204 0
1 198 -141 0
1 198 210 0
1 198 200 0
1 -198 -205 0
1 -198 -215 0
1 -208 -202 0
1 -208 199 0
1 208 -151 0
1 208 163 0
1 -208 214 0
1 208 206 0
1 208 -201 0
1 -208 -153 0
1 -208 -207 0
1 -213 -202 0
1 213 -199 0
1 -213 163 0
1 -213 214 0
1 -213 206 0
1 213 201 0
1 -213 207 0
1 -213 187 0
1 213 197 0
1 212 202 0
1 212 163 0
1 -212 -206 0
1 212 201 0
1 -212 213 0
1 -212 -197 0
1 199 -209 0
1 199 -142 0
1 199 212 0
1 199 208 0
1 -199 210 0
1 -199 -201 0
1 -201 -209 0
1 201 212 0
1 201 208 0
1 -201 -194 0
1 201 213 0
1 202 209 0
1 202 212 0
1 202 208 0
1 206 -209 0
1 -206 208 0
1 206 148 0
1 206 210 0
1 -206 213 0
